50
500
338
337
337
327
326
319
316
308
305
292
284
282
278
250
248
241
241
238
235
232
227
221
218
217
215
207
206
198
194
194
191
189
175
174
171
170
167
161
159
158
154
151
141
140
135
131
130
121
112
106
